9
0, 442, 161, 572, 493, 401, 502, 739, 438
442, 0, 510, 177, 466, 399, 81, 305, 572
161, 510, 0, 600, 650, 321, 551, 780, 598
572, 177, 600, 0, 638, 387, 96, 182, 749
493, 466, 650, 638, 0, 759, 543, 707, 182
401, 399, 321, 387, 759, 0, 389, 564, 782
502, 81, 551, 96, 543, 389, 0, 237, 653
739, 305, 780, 182, 707, 564, 237, 0, 847
438, 572, 598, 749, 182, 782, 653, 847, 0
